[2026-03-23T16:01:19.151Z] Pipeline "set_exp_3_exp_3_n023_c003_g004" → 2026_03_23_16_01_18_set_exp_3_exp_3_n023_c003_g004_max.sol
Set parameter WLSAccessID
Set parameter WLSSecret
Set parameter LicenseID to value 2792458
Set parameter LogFile to value "gurobi.log"
Using license file /root/gurobi.lic
Academic license 2792458 - for non-commercial use only - registered to an___@studenti.unipg.it

Gurobi Optimizer version 13.0.1 build v13.0.1rc0 (linux64 - "Ubuntu 24.04.4 LTS")
Copyright (c) 2026, Gurobi Optimization, LLC

Warning: Duplicate section found (read 'binary') - Is a variable name equal to an LP file format keyword?
Warning: Duplicate section found (read 'binary') - Is a variable name equal to an LP file format keyword?
Warning: Duplicate section found (read 'binary') - Is a variable name equal to an LP file format keyword?
Warning: Duplicate section found (read 'binary') - Is a variable name equal to an LP file format keyword?
Warning: Duplicate section found (read 'binary') - Is a variable name equal to an LP file format keyword?
Warning: Duplicate section found (read 'binary') - Is a variable name equal to an LP file format keyword?
Warning: Duplicate section found (read 'binary') - Is a variable name equal to an LP file format keyword?
Warning: Duplicate section found (read 'binary') - Is a variable name equal to an LP file format keyword?
Warning: Duplicate section found (read 'binary') - Is a variable name equal to an LP file format keyword?
Warning: Duplicate section found (read 'binary') - Is a variable name equal to an LP file format keyword?
Warning: Further warnings of this type will be omitted.
Read LP format model from file /root/bgw/data/uploads/2026_03_23_16_01_18_set_exp_3_exp_3_n023_c003_g004_max.lp
Reading time = 0.01 seconds
: 4256 rows, 415 columns, 12554 nonzeros

Using Gurobi shared library /opt/gurobi1301/linux64/lib/libgurobi.so.13.0.1

CPU model: AMD EPYC-Genoa Processor, instruction set [SSE2|AVX|AVX2|AVX512]
Thread count: 16 physical cores, 16 logical processors, using up to 16 threads

Academic license 2792458 - for non-commercial use only - registered to an___@studenti.unipg.it
Optimize a model with 4256 rows, 415 columns and 12554 nonzeros (Max)
Model fingerprint: 0x7128dc8f
Model has 7 linear objective coefficients
Variable types: 30 continuous, 385 integer (385 binary)
Coefficient statistics:
  Matrix range     [1e+00, 2e+01]
  Objective range  [1e+00, 1e+00]
  Bounds range     [1e+00, 1e+00]
  RHS range        [1e+00, 3e+01]

Found heuristic solution: objective 7.0000000
Presolve removed 680 rows and 140 columns
Presolve time: 0.02s
Presolved: 3576 rows, 275 columns, 10928 nonzeros
Variable types: 0 continuous, 275 integer (265 binary)
Found heuristic solution: objective 10.0000000

Root relaxation: objective 3.100000e+01, 372 iterations, 0.02 seconds (0.02 work units)

    Nodes    |    Current Node    |     Objective Bounds      |     Work
 Expl Unexpl |  Obj  Depth IntInf | Incumbent    BestBd   Gap | It/Node Time

     0     0   31.00000    0   24   10.00000   31.00000   210%     -    0s
H    0     0                      20.0000000   31.00000  55.0%     -    0s
     0     0   31.00000    0   25   20.00000   31.00000  55.0%     -    0s
     0     0   31.00000    0   22   20.00000   31.00000  55.0%     -    0s
     0     0   31.00000    0   16   20.00000   31.00000  55.0%     -    0s
     0     0   31.00000    0   20   20.00000   31.00000  55.0%     -    0s
     0     0   31.00000    0   15   20.00000   31.00000  55.0%     -    0s
     0     0   31.00000    0   15   20.00000   31.00000  55.0%     -    0s
     0     0   31.00000    0   12   20.00000   31.00000  55.0%     -    0s
     0     0   31.00000    0   12   20.00000   31.00000  55.0%     -    0s
     0     0   31.00000    0   11   20.00000   31.00000  55.0%     -    0s
     0     0   31.00000    0   11   20.00000   31.00000  55.0%     -    0s
     0     0   31.00000    0   13   20.00000   31.00000  55.0%     -    0s
     0     0   31.00000    0   13   20.00000   31.00000  55.0%     -    0s
     0     0   31.00000    0   13   20.00000   31.00000  55.0%     -    0s
     0     2   31.00000    0   13   20.00000   31.00000  55.0%     -    0s

Cutting planes:
  Gomory: 1
  Cover: 6
  MIR: 8
  Inf proof: 10
  Zero half: 4
  Mod-K: 4

Explored 800 nodes (39307 simplex iterations) in 0.77 seconds (0.73 work units)
Thread count was 16 (of 16 available processors)

Solution count 3: 20 10 7 

Optimal solution found (tolerance 1.00e-04)
Best objective 2.000000000000e+01, best bound 2.000000000000e+01, gap 0.0000%

Wrote result file '/root/bgw/data/results/2026_03_23_16_01_18_set_exp_3_exp_3_n023_c003_g004_max.sol'

